c WARNING: for repeatability, setting FPU to use double precision
d VARIABLES            120738       
d CONSTRAINTS          534820       
c ============================[ Problem Statistics ]=============================
c |                                                                             |
c |  Number of variables:        120738                                         |
c |  Number of clauses:          534820                                         |
c |  Parse time:                   0.09 s                                       |
c |                                                                             |
c ============================[ Search Statistics ]==============================
c | Conflicts |          ORIGINAL         |          LEARNT          | Progress |
c |           |    Vars  Clauses Literals |    Limit  Clauses Lit/Cl |          |
c ===============================================================================
c |       100 |  101840   480940  1166418 |   176344       99     26 | 15.652 % |
c |       250 |  101840   480940  1166418 |   193979      249     31 | 15.652 % |
c |       475 |  101840   480895  1166310 |   213377      474    119 | 15.652 % |
c |       812 |  101840   480895  1166310 |   234714      811     91 | 15.652 % |
c |      1318 |  101840   480895  1166310 |   258186     1317     98 | 15.652 % |
c |      2077 |  101840   480895  1166310 |   284004     2076    101 | 15.652 % |
c |      3216 |  101840   480895  1166310 |   312405     3215    128 | 15.652 % |
c |      4924 |  101840   480895  1166310 |   343645     4923    136 | 15.652 % |
c |      7486 |  101840   480895  1166310 |   378010     7485    155 | 15.652 % |
c |     11330 |  101840   480895  1166310 |   415811    11329    165 | 15.652 % |
c |     17096 |  101840   480895  1166310 |   457392    17095    178 | 15.652 % |
c |     25745 |  101840   480895  1166310 |   503131    25744    191 | 15.652 % |
c |     38719 |  101840   480895  1166310 |   553445    38718    181 | 15.652 % |
c |     58180 |  101840   480895  1166310 |   608789    58179    174 | 15.652 % |
c |     87372 |  101840   480895  1166310 |   669668    87371    176 | 15.652 % |
c |    131161 |  101840   480895  1166310 |   736635   131160    174 | 15.652 % |
c |    196845 |  101840   480895  1166310 |   810298   196844    168 | 15.652 % |
c |    295371 |  101840   480895  1166310 |   891328   295370    164 | 15.652 % |
c |    443160 |  101840   480895  1166310 |   980461   443159    177 | 15.652 % |
c |    664843 |  101840   480895  1166310 |  1078507   664842    187 | 15.652 % |
c |    997368 |  101840   480895  1166310 |  1186358   997367    177 | 15.652 % |
c |   1496156 |  101840   480895  1166310 |  1304994   324598    153 | 15.652 % |
c |   2244338 |  101840   480895  1166310 |  1435494  1072780    156 | 15.652 % |
c ===============================================================================
c restarts              : 4095
c conflicts             : 2307698        (1286 /sec)
c decisions             : 5270397        (0.00 % random) (2937 /sec)
c propagations          : 3873984164     (2159161 /sec)
c conflict literals     : 382926679      (41.21 % deleted)
d RESTARTS             4095
d FAILURES             2307698      
d NODES                5270397      
d BACKTRACKS           5270397      
d PROPAGATIONS         3873984164   
d NOGOODSIZE           165.93 
d MEMORY               1045.00 
d TIME                 1794.21 

s UNKNOWN
